units       lj

boundary p p p

atom_style  full 

variable side  equal 25
region      boxid block 0.0 ${side} 0.0 ${side} 0.0 ${side}
create_box  1 boxid

lattice     sc 0.5

create_atoms    1 box

mass        1 1.0

velocity    all create 1.0 87287 dist gaussian

pair_style  lj/cut 2.5

pair_coeff  1 1 1.0 1.0 2.5

neighbor    0.5 bin

thermo_style custom step pe ke etotal temp press density
#thermo_modify norm no
thermo 1000

fix     1 all nve
timestep 0.005

run 1000

unfix 1
fix     2 all nvt temp 1.0 1.0 0.5 
run     1000

dump    1       all atom 1000 output.lammpstrj
run     100000
